(set-info :Origin "This instance was generated by: BanditFuzz-- an RL fuzzer for SMT solvers" )
(set-info :Author "Joe Scott, Fed Mora, Vijay Ganesh" )
(set-info :Contact "Joe Scott, joseph.scott@uwaterloo.ca")
(set-logic QF_BV)
(declare-const bool_0 Bool)
(declare-const bool_1 Bool)
(declare-const bool_2 Bool)
(declare-const bool_3 Bool)
(declare-const bool_4 Bool)
(declare-const bv_0 (_ BitVec 32))
(declare-const bv_1 (_ BitVec 32))
(declare-const bv_2 (_ BitVec 32))
(declare-const bv_3 (_ BitVec 32))
(declare-const bv_4 (_ BitVec 32))
(assert (bvslt (bvor (bvashr #xd7265213  #x49735eb5 ) (bvadd bv_2 #x137909d3 )) (bvxnor (bvnand #x4837224b  bv_4) (bvor bv_4 bv_2))))
(assert (bvule (bvudiv (bvmul #x6a870cb3  bv_1) (bvashr #x8145ba1a  #x8c28fd01 )) (bvxor (bvshl #x60a8fd67  #xd74bad17 ) (bvnand bv_4 bv_4))))
(assert (not (bvult (bvsub bv_1 bv_2) (bvxnor #x04e1a401  #x00638ff6 ))))
(assert (bvule (bvlshr (bvsmod bv_4 bv_1) (bvxnor bv_0 #x8dd55ff0 )) (bvlshr (bvand bv_0 bv_3) (bvlshr #x9f35372d  #xc8fed248 ))))
(assert (bvsgt (bvxor (bvsmod bv_4 #x65ce5753 ) (bvsrem bv_1 bv_0)) (bvsrem (bvshl bv_2 bv_0) (bvadd bv_1 bv_2))))
(check-sat)
(exit)
